p cnf 50 560
1 2 3 4 5 0
6 7 8 9 10 0
11 12 13 14 15 0
16 17 18 19 20 0
21 22 23 24 25 0
26 27 28 29 30 0
31 32 33 34 35 0
36 37 38 39 40 0
41 42 43 44 45 0
46 47 48 49 50 0
-1 -2 0
-1 -3 0
-1 -4 0
-1 -5 0
-2 -3 0
-2 -4 0
-2 -5 0
-3 -4 0
-3 -5 0
-4 -5 0
-6 -7 0
-6 -8 0
-6 -9 0
-6 -10 0
-7 -8 0
-7 -9 0
-7 -10 0
-8 -9 0
-8 -10 0
-9 -10 0
-11 -12 0
-11 -13 0
-11 -14 0
-11 -15 0
-12 -13 0
-12 -14 0
-12 -15 0
-13 -14 0
-13 -15 0
-14 -15 0
-16 -17 0
-16 -18 0
-16 -19 0
-16 -20 0
-17 -18 0
-17 -19 0
-17 -20 0
-18 -19 0
-18 -20 0
-19 -20 0
-21 -22 0
-21 -23 0
-21 -24 0
-21 -25 0
-22 -23 0
-22 -24 0
-22 -25 0
-23 -24 0
-23 -25 0
-24 -25 0
-26 -27 0
-26 -28 0
-26 -29 0
-26 -30 0
-27 -28 0
-27 -29 0
-27 -30 0
-28 -29 0
-28 -30 0
-29 -30 0
-31 -32 0
-31 -33 0
-31 -34 0
-31 -35 0
-32 -33 0
-32 -34 0
-32 -35 0
-33 -34 0
-33 -35 0
-34 -35 0
-36 -37 0
-36 -38 0
-36 -39 0
-36 -40 0
-37 -38 0
-37 -39 0
-37 -40 0
-38 -39 0
-38 -40 0
-39 -40 0
-41 -42 0
-41 -43 0
-41 -44 0
-41 -45 0
-42 -43 0
-42 -44 0
-42 -45 0
-43 -44 0
-43 -45 0
-44 -45 0
-46 -47 0
-46 -48 0
-46 -49 0
-46 -50 0
-47 -48 0
-47 -49 0
-47 -50 0
-48 -49 0
-48 -50 0
-49 -50 0
-1 6 7 8 9 10 0
-2 6 7 8 9 10 0
-3 6 7 8 9 10 0
-4 6 7 8 9 10 0
-5 6 7 8 9 10 0
-1 11 12 13 14 15 0
-2 11 12 13 14 15 0
-3 11 12 13 14 15 0
-4 11 12 13 14 15 0
-5 11 12 13 14 15 0
-1 16 17 18 19 20 0
-2 16 17 18 19 20 0
-3 16 17 18 19 20 0
-4 16 17 18 19 20 0
-5 16 17 18 19 20 0
-1 21 22 23 24 25 0
-2 21 22 23 24 25 0
-3 21 22 23 24 25 0
-4 21 22 23 24 25 0
-5 21 22 23 24 25 0
-1 26 27 28 29 30 0
-2 26 27 28 29 30 0
-3 26 27 28 29 30 0
-4 26 27 28 29 30 0
-5 26 27 28 29 30 0
-1 31 32 33 34 35 0
-2 31 32 33 34 35 0
-3 31 32 33 34 35 0
-4 31 32 33 34 35 0
-5 31 32 33 34 35 0
-1 36 37 38 39 40 0
-2 36 37 38 39 40 0
-3 36 37 38 39 40 0
-4 36 37 38 39 40 0
-5 36 37 38 39 40 0
-1 41 42 43 44 45 0
-2 41 42 43 44 45 0
-3 41 42 43 44 45 0
-4 41 42 43 44 45 0
-5 41 42 43 44 45 0
-1 46 47 48 49 50 0
-2 46 47 48 49 50 0
-3 46 47 48 49 50 0
-4 46 47 48 49 50 0
-5 46 47 48 49 50 0
-6 1 2 3 4 5 0
-7 1 2 3 4 5 0
-8 1 2 3 4 5 0
-9 1 2 3 4 5 0
-10 1 2 3 4 5 0
-6 11 12 13 14 15 0
-7 11 12 13 14 15 0
-8 11 12 13 14 15 0
-9 11 12 13 14 15 0
-10 11 12 13 14 15 0
-6 16 17 18 19 20 0
-7 16 17 18 19 20 0
-8 16 17 18 19 20 0
-9 16 17 18 19 20 0
-10 16 17 18 19 20 0
-6 21 22 23 24 25 0
-7 21 22 23 24 25 0
-8 21 22 23 24 25 0
-9 21 22 23 24 25 0
-10 21 22 23 24 25 0
-6 26 27 28 29 30 0
-7 26 27 28 29 30 0
-8 26 27 28 29 30 0
-9 26 27 28 29 30 0
-10 26 27 28 29 30 0
-6 31 32 33 34 35 0
-7 31 32 33 34 35 0
-8 31 32 33 34 35 0
-9 31 32 33 34 35 0
-10 31 32 33 34 35 0
-6 37 38 39 40 0
-7 36 38 39 40 0
-8 36 37 39 40 0
-9 36 37 38 40 0
-10 36 37 38 39 0
-6 41 42 43 44 45 0
-7 41 42 43 44 45 0
-8 41 42 43 44 45 0
-9 41 42 43 44 45 0
-10 41 42 43 44 45 0
-6 46 47 48 49 50 0
-7 46 47 48 49 50 0
-8 46 47 48 49 50 0
-9 46 47 48 49 50 0
-10 46 47 48 49 50 0
-11 1 2 3 4 5 0
-12 1 2 3 4 5 0
-13 1 2 3 4 5 0
-14 1 2 3 4 5 0
-15 1 2 3 4 5 0
-11 6 7 8 9 10 0
-12 6 7 8 9 10 0
-13 6 7 8 9 10 0
-14 6 7 8 9 10 0
-15 6 7 8 9 10 0
-11 16 17 18 19 20 0
-12 16 17 18 19 20 0
-13 16 17 18 19 20 0
-14 16 17 18 19 20 0
-15 16 17 18 19 20 0
-11 21 22 23 24 25 0
-12 21 22 23 24 25 0
-13 21 22 23 24 25 0
-14 21 22 23 24 25 0
-15 21 22 23 24 25 0
-11 26 27 28 29 30 0
-12 26 27 28 29 30 0
-13 26 27 28 29 30 0
-14 26 27 28 29 30 0
-15 26 27 28 29 30 0
-11 31 32 33 34 35 0
-12 31 32 33 34 35 0
-13 31 32 33 34 35 0
-14 31 32 33 34 35 0
-15 31 32 33 34 35 0
-11 36 37 38 39 40 0
-12 36 37 38 39 40 0
-13 36 37 38 39 40 0
-14 36 37 38 39 40 0
-15 36 37 38 39 40 0
-11 41 42 43 44 45 0
-12 41 42 43 44 45 0
-13 41 42 43 44 45 0
-14 41 42 43 44 45 0
-15 41 42 43 44 45 0
-11 46 47 48 49 50 0
-12 46 47 48 49 50 0
-13 46 47 48 49 50 0
-14 46 47 48 49 50 0
-15 46 47 48 49 50 0
-16 1 2 3 4 5 0
-17 1 2 3 4 5 0
-18 1 2 3 4 5 0
-19 1 2 3 4 5 0
-20 1 2 3 4 5 0
-16 6 7 8 9 10 0
-17 6 7 8 9 10 0
-18 6 7 8 9 10 0
-19 6 7 8 9 10 0
-20 6 7 8 9 10 0
-16 11 12 13 14 15 0
-17 11 12 13 14 15 0
-18 11 12 13 14 15 0
-19 11 12 13 14 15 0
-20 11 12 13 14 15 0
-16 21 22 23 24 25 0
-17 21 22 23 24 25 0
-18 21 22 23 24 25 0
-19 21 22 23 24 25 0
-20 21 22 23 24 25 0
-16 26 27 28 29 30 0
-17 26 27 28 29 30 0
-18 26 27 28 29 30 0
-19 26 27 28 29 30 0
-20 26 27 28 29 30 0
-16 31 32 33 34 35 0
-17 31 32 33 34 35 0
-18 31 32 33 34 35 0
-19 31 32 33 34 35 0
-20 31 32 33 34 35 0
-16 37 38 39 40 0
-17 36 38 39 40 0
-18 36 37 39 40 0
-19 36 37 38 40 0
-20 36 37 38 39 0
-16 42 43 44 45 0
-17 41 43 44 45 0
-18 41 42 44 45 0
-19 41 42 43 45 0
-20 41 42 43 44 0
-16 46 47 48 49 50 0
-17 46 47 48 49 50 0
-18 46 47 48 49 50 0
-19 46 47 48 49 50 0
-20 46 47 48 49 50 0
-21 1 2 3 4 5 0
-22 1 2 3 4 5 0
-23 1 2 3 4 5 0
-24 1 2 3 4 5 0
-25 1 2 3 4 5 0
-21 6 7 8 9 10 0
-22 6 7 8 9 10 0
-23 6 7 8 9 10 0
-24 6 7 8 9 10 0
-25 6 7 8 9 10 0
-21 11 12 13 14 15 0
-22 11 12 13 14 15 0
-23 11 12 13 14 15 0
-24 11 12 13 14 15 0
-25 11 12 13 14 15 0
-21 16 17 18 19 20 0
-22 16 17 18 19 20 0
-23 16 17 18 19 20 0
-24 16 17 18 19 20 0
-25 16 17 18 19 20 0
-21 26 27 28 29 30 0
-22 26 27 28 29 30 0
-23 26 27 28 29 30 0
-24 26 27 28 29 30 0
-25 26 27 28 29 30 0
-21 31 32 33 34 35 0
-22 31 32 33 34 35 0
-23 31 32 33 34 35 0
-24 31 32 33 34 35 0
-25 31 32 33 34 35 0
-21 36 37 38 39 40 0
-22 36 37 38 39 40 0
-23 36 37 38 39 40 0
-24 36 37 38 39 40 0
-25 36 37 38 39 40 0
-21 41 42 43 44 45 0
-22 41 42 43 44 45 0
-23 41 42 43 44 45 0
-24 41 42 43 44 45 0
-25 41 42 43 44 45 0
-21 46 47 48 49 50 0
-22 46 47 48 49 50 0
-23 46 47 48 49 50 0
-24 46 47 48 49 50 0
-25 46 47 48 49 50 0
-26 1 2 3 4 5 0
-27 1 2 3 4 5 0
-28 1 2 3 4 5 0
-29 1 2 3 4 5 0
-30 1 2 3 4 5 0
-26 6 7 8 9 10 0
-27 6 7 8 9 10 0
-28 6 7 8 9 10 0
-29 6 7 8 9 10 0
-30 6 7 8 9 10 0
-26 11 12 13 14 15 0
-27 11 12 13 14 15 0
-28 11 12 13 14 15 0
-29 11 12 13 14 15 0
-30 11 12 13 14 15 0
-26 16 17 18 19 20 0
-27 16 17 18 19 20 0
-28 16 17 18 19 20 0
-29 16 17 18 19 20 0
-30 16 17 18 19 20 0
-26 21 22 23 24 25 0
-27 21 22 23 24 25 0
-28 21 22 23 24 25 0
-29 21 22 23 24 25 0
-30 21 22 23 24 25 0
-26 31 32 33 34 35 0
-27 31 32 33 34 35 0
-28 31 32 33 34 35 0
-29 31 32 33 34 35 0
-30 31 32 33 34 35 0
-26 36 37 38 39 40 0
-27 36 37 38 39 40 0
-28 36 37 38 39 40 0
-29 36 37 38 39 40 0
-30 36 37 38 39 40 0
-26 41 42 43 44 45 0
-27 41 42 43 44 45 0
-28 41 42 43 44 45 0
-29 41 42 43 44 45 0
-30 41 42 43 44 45 0
-26 46 47 48 49 50 0
-27 46 47 48 49 50 0
-28 46 47 48 49 50 0
-29 46 47 48 49 50 0
-30 46 47 48 49 50 0
-31 1 2 3 4 5 0
-32 1 2 3 4 5 0
-33 1 2 3 4 5 0
-34 1 2 3 4 5 0
-35 1 2 3 4 5 0
-31 6 7 8 9 10 0
-32 6 7 8 9 10 0
-33 6 7 8 9 10 0
-34 6 7 8 9 10 0
-35 6 7 8 9 10 0
-31 11 12 13 14 15 0
-32 11 12 13 14 15 0
-33 11 12 13 14 15 0
-34 11 12 13 14 15 0
-35 11 12 13 14 15 0
-31 16 17 18 19 20 0
-32 16 17 18 19 20 0
-33 16 17 18 19 20 0
-34 16 17 18 19 20 0
-35 16 17 18 19 20 0
-31 21 22 23 24 25 0
-32 21 22 23 24 25 0
-33 21 22 23 24 25 0
-34 21 22 23 24 25 0
-35 21 22 23 24 25 0
-31 26 27 28 29 30 0
-32 26 27 28 29 30 0
-33 26 27 28 29 30 0
-34 26 27 28 29 30 0
-35 26 27 28 29 30 0
-31 36 37 38 39 40 0
-32 36 37 38 39 40 0
-33 36 37 38 39 40 0
-34 36 37 38 39 40 0
-35 36 37 38 39 40 0
-31 41 42 43 44 45 0
-32 41 42 43 44 45 0
-33 41 42 43 44 45 0
-34 41 42 43 44 45 0
-35 41 42 43 44 45 0
-31 46 47 48 49 50 0
-32 46 47 48 49 50 0
-33 46 47 48 49 50 0
-34 46 47 48 49 50 0
-35 46 47 48 49 50 0
-36 1 2 3 4 5 0
-37 1 2 3 4 5 0
-38 1 2 3 4 5 0
-39 1 2 3 4 5 0
-40 1 2 3 4 5 0
-36 7 8 9 10 0
-37 6 8 9 10 0
-38 6 7 9 10 0
-39 6 7 8 10 0
-40 6 7 8 9 0
-36 11 12 13 14 15 0
-37 11 12 13 14 15 0
-38 11 12 13 14 15 0
-39 11 12 13 14 15 0
-40 11 12 13 14 15 0
-36 17 18 19 20 0
-37 16 18 19 20 0
-38 16 17 19 20 0
-39 16 17 18 20 0
-40 16 17 18 19 0
-36 21 22 23 24 25 0
-37 21 22 23 24 25 0
-38 21 22 23 24 25 0
-39 21 22 23 24 25 0
-40 21 22 23 24 25 0
-36 26 27 28 29 30 0
-37 26 27 28 29 30 0
-38 26 27 28 29 30 0
-39 26 27 28 29 30 0
-40 26 27 28 29 30 0
-36 31 32 33 34 35 0
-37 31 32 33 34 35 0
-38 31 32 33 34 35 0
-39 31 32 33 34 35 0
-40 31 32 33 34 35 0
-36 41 42 43 44 45 0
-37 41 42 43 44 45 0
-38 41 42 43 44 45 0
-39 41 42 43 44 45 0
-40 41 42 43 44 45 0
-36 47 48 49 50 0
-37 46 48 49 50 0
-38 46 47 49 50 0
-39 46 47 48 50 0
-40 46 47 48 49 0
-41 1 2 3 4 5 0
-42 1 2 3 4 5 0
-43 1 2 3 4 5 0
-44 1 2 3 4 5 0
-45 1 2 3 4 5 0
-41 6 7 8 9 10 0
-42 6 7 8 9 10 0
-43 6 7 8 9 10 0
-44 6 7 8 9 10 0
-45 6 7 8 9 10 0
-41 11 12 13 14 15 0
-42 11 12 13 14 15 0
-43 11 12 13 14 15 0
-44 11 12 13 14 15 0
-45 11 12 13 14 15 0
-41 17 18 19 20 0
-42 16 18 19 20 0
-43 16 17 19 20 0
-44 16 17 18 20 0
-45 16 17 18 19 0
-41 21 22 23 24 25 0
-42 21 22 23 24 25 0
-43 21 22 23 24 25 0
-44 21 22 23 24 25 0
-45 21 22 23 24 25 0
-41 26 27 28 29 30 0
-42 26 27 28 29 30 0
-43 26 27 28 29 30 0
-44 26 27 28 29 30 0
-45 26 27 28 29 30 0
-41 31 32 33 34 35 0
-42 31 32 33 34 35 0
-43 31 32 33 34 35 0
-44 31 32 33 34 35 0
-45 31 32 33 34 35 0
-41 36 37 38 39 40 0
-42 36 37 38 39 40 0
-43 36 37 38 39 40 0
-44 36 37 38 39 40 0
-45 36 37 38 39 40 0
-41 46 47 48 49 50 0
-42 46 47 48 49 50 0
-43 46 47 48 49 50 0
-44 46 47 48 49 50 0
-45 46 47 48 49 50 0
-46 1 2 3 4 5 0
-47 1 2 3 4 5 0
-48 1 2 3 4 5 0
-49 1 2 3 4 5 0
-50 1 2 3 4 5 0
-46 6 7 8 9 10 0
-47 6 7 8 9 10 0
-48 6 7 8 9 10 0
-49 6 7 8 9 10 0
-50 6 7 8 9 10 0
-46 11 12 13 14 15 0
-47 11 12 13 14 15 0
-48 11 12 13 14 15 0
-49 11 12 13 14 15 0
-50 11 12 13 14 15 0
-46 16 17 18 19 20 0
-47 16 17 18 19 20 0
-48 16 17 18 19 20 0
-49 16 17 18 19 20 0
-50 16 17 18 19 20 0
-46 21 22 23 24 25 0
-47 21 22 23 24 25 0
-48 21 22 23 24 25 0
-49 21 22 23 24 25 0
-50 21 22 23 24 25 0
-46 26 27 28 29 30 0
-47 26 27 28 29 30 0
-48 26 27 28 29 30 0
-49 26 27 28 29 30 0
-50 26 27 28 29 30 0
-46 31 32 33 34 35 0
-47 31 32 33 34 35 0
-48 31 32 33 34 35 0
-49 31 32 33 34 35 0
-50 31 32 33 34 35 0
-46 37 38 39 40 0
-47 36 38 39 40 0
-48 36 37 39 40 0
-49 36 37 38 40 0
-50 36 37 38 39 0
-46 41 42 43 44 45 0
-47 41 42 43 44 45 0
-48 41 42 43 44 45 0
-49 41 42 43 44 45 0
-50 41 42 43 44 45 0
